100 8
294 436
189 30
743 758
813 757
537 274
281 783
858 278
192 593
247 733
585 741
175 728
337 107
800 498
230 144
295 700
636 313
413 470
403 105
749 573
739 592
925 293
277 736
825 315
385 542
308 682
250 626
881 709
565 266
557 119
419 36
421 561
818 368
815 326
532 759
675 720
410 205
420 174
290 299
354 91
380 491
630 176
819 448
763 458
708 690
70 610
304 351
641 470
770 582
277 881
804 311
656 463
822 279
627 707
288 103
521 693
538 296
900 249
737 635
728 832
387 18
228 746
407 130
159 598
586 182
98 740
630 320
419 553
722 562
233 766
346 428
410 237
576 686
786 794
704 763
716 705
910 189
317 789
777 404
371 351
79 665
821 618
389 168
536 283
609 677
382 454
334 736
697 738
667 143
344 712
501 20
818 604
378 323
557 735
692 740
786 844
698 721
837 750
328 187
264 808
360 767
